;  time  = {}
;  terms = 7
;  score = -1
;  stdout= {}
(set-logic QF_FP)
(define-fun pone () (_ FloatingPoint 8 24) (fp #b0 #b01111111 #b00000000000000000000000))
(define-fun none () (_ FloatingPoint 8 24) (fp #b1 #b01111111 #b00000000000000000000000))
(declare-const x0 (_ FloatingPoint 8 24))
(declare-const x1 (_ FloatingPoint 8 24))
(assert (and (fp.eq (fp.add RNE x1 x1) (fp.div RNE x1 x0)) (not (fp.eq (fp.add RNE x1 x1) (fp.div RNE x1 x0)))))(assert (fp.lt x0 pone ))
(assert (fp.gt x0 none ))
(assert (fp.lt x1 pone ))
(assert (fp.gt x1 none ))
(check-sat)